interdiction/MCDM/NO_CORR/GEN_FROM_60/18_ITEMS_1000_GEN/K5018W08.KNP.mps
NAME          BLANK   
ROWS
 N  OBJROW
 L  R0000000
COLUMNS
    C0000000  OBJROW     -293.         R0000000  68.         
    C0000001  OBJROW     -293.         R0000000  260.        
    C0000002  OBJROW     -948.         R0000000  432.        
    C0000003  OBJROW     -737.         R0000000  532.        
    C0000004  OBJROW     -225.         R0000000  538.        
    C0000005  OBJROW     -297.         R0000000  160.        
    C0000006  OBJROW     -905.         R0000000  106.        
    C0000007  OBJROW     -26.          R0000000  96.         
    C0000008  OBJROW     -570.         R0000000  150.        
    C0000009  OBJROW     -973.         R0000000  247.        
    C0000010  OBJROW     -250.         R0000000  56.         
    C0000011  OBJROW     -323.         R0000000  927.        
    C0000012  OBJROW     -964.         R0000000  464.        
    C0000013  OBJROW     -14.          R0000000  377.        
    C0000014  OBJROW     -216.         R0000000  530.        
    C0000015  OBJROW     -545.         R0000000  70.         
    C0000016  OBJROW     -801.         R0000000  411.        
    C0000017  OBJROW     -602.         R0000000  584.        
RHS
    RHS       R0000000  15314.      
BOUNDS
 BV BOUND     C0000000  1.          
 BV BOUND     C0000001  1.          
 BV BOUND     C0000002  1.          
 BV BOUND     C0000003  1.          
 BV BOUND     C0000004  1.          
 BV BOUND     C0000005  1.          
 BV BOUND     C0000006  1.          
 BV BOUND     C0000007  1.          
 BV BOUND     C0000008  1.          
 BV BOUND     C0000009  1.          
 BV BOUND     C0000010  1.          
 BV BOUND     C0000011  1.          
 BV BOUND     C0000012  1.          
 BV BOUND     C0000013  1.          
 BV BOUND     C0000014  1.          
 BV BOUND     C0000015  1.          
 BV BOUND     C0000016  1.          
 BV BOUND     C0000017  1.          
ENDATA
