data/MCDM/NO_CORR/GEN_FROM_60/18_ITEMS_1000_GEN/K5018W08.KNP.txt
N 18
M 19
LC 18
LC 19
LC 20
LC 21
LC 22
LC 23
LC 24
LC 25
LC 26
LC 27
LC 28
LC 29
LC 30
LC 31
LC 32
LC 33
LC 34
LC 35
LR 1
LR 2
LR 3
LR 4
LR 5
LR 6
LR 7
LR 8
LR 9
LR 10
LR 11
LR 12
LR 13
LR 14
LR 15
LR 16
LR 17
LR 18
LR 19
LO -293
LO -293
LO -948
LO -737
LO -225
LO -297
LO -905
LO -26
LO -570
LO -973
LO -250
LO -323
LO -964
LO -14
LO -216
LO -545
LO -801
LO -602
OS 1
IC 289
IC 611
IC 478
IC 841
IC 915
IC 248
IC 595
IC 790
IC 702
IC 974
IC 532
IC 486
IC 652
IC 623
IC 647
IC 51
IC 426
IC 327
IB 5094
